ssat_solver_solve2
#level: 2
Abc_NtkNodeNum(s->pNtk): 569  , BDD limit: 10240
Build BDD success
level 1: 10 element
Exist
level 0: 10 element
Random
c ssat solving in ABC
#var: 20
s SATISFIABLE
  > Upper bound = 7.792969e-01
  > Lower bound = 7.792969e-01
FINISHED CPU 0.11 MEM 59548 MAXMEM 59548 STALE 0 MAXMEM_RSS 17780
<time name="ALL">190</time>
real 0.31
user 0.31
sys 0.11
